(set-logic SLHV)
(declare-hvar emp IntHeap)
(declare-locvar nil IntLoc)
(declare-datatype pt_record_0 ((Pt_R_0 (loc IntLoc))))
(declare-datatype pt_record_1 ((Pt_R_1 (data Int))))
(declare-const d13 Int)
(declare-locvar l20 IntLoc)
(declare-hvar ah3 IntHeap)
(declare-hvar AH_2 IntHeap)
(declare-const d12 Int)
(declare-locvar l18 IntLoc)
(declare-hvar h18 IntHeap)
(declare-hvar H_2 IntHeap)
(declare-locvar l19 IntLoc)
(declare-const loc_2 Int)
(declare-hvar H_1 IntHeap)
(declare-hvar AH_1 IntHeap)
(declare-const $r_main0_1 Int)
(declare-const $r_main0_2 Int)
(declare-const $i9_main0_1 Int)
(declare-const $i9_main0_2 Int)
(declare-const $i8_push0_1 Int)
(declare-const $i8_push0_2 Int)
(declare-const $i8_main0_1 Int)
(declare-const $i8_main0_2 Int)
(declare-const $i7_push0_1 Int)
(declare-const $i7_push0_2 Int)
(declare-const $i7_pop0_1 Int)
(declare-const $i7_pop0_2 Int)
(declare-const $i7_main0_1 Int)
(declare-const $i7_main0_2 Int)
(declare-const $i6_push0_1 Int)
(declare-const $i6_push0_2 Int)
(declare-const $i6_pop0_1 Int)
(declare-const $i6_pop0_2 Int)
(declare-const $i6_main0_1 Int)
(declare-const $i6_main0_2 Int)
(declare-const $i5_push0_1 Int)
(declare-const $i5_push0_2 Int)
(declare-const $i5_pop0_1 Int)
(declare-const $i5_pop0_2 Int)
(declare-const $i5_main0_1 Int)
(declare-const $i5_main0_2 Int)
(declare-const $i4_push0_1 Int)
(declare-const $i4_push0_2 Int)
(declare-const $i4_pop0_1 Int)
(declare-const $i4_pop0_2 Int)
(declare-const $i3_push0_1 Int)
(declare-const $i3_push0_2 Int)
(declare-const $i3_pop0_1 Int)
(declare-const $i3_pop0_2 Int)
(declare-const $i2_push0_1 Int)
(declare-const $i2_push0_2 Int)
(declare-const $i2_pop0_1 Int)
(declare-const $i2_pop0_2 Int)
(declare-const $i24_main0_1 Int)
(declare-const $i24_main0_2 Int)
(declare-const $i23_push0_1 Int)
(declare-const $i23_push0_2 Int)
(declare-const $i23_main0_1 Int)
(declare-const $i23_main0_2 Int)
(declare-const $i22_main0_1 Int)
(declare-const $i22_main0_2 Int)
(declare-const $i21_main0_1 Int)
(declare-const $i21_main0_2 Int)
(declare-const $i20_pop0_1 Int)
(declare-const $i20_pop0_2 Int)
(declare-const $i1_push0_1 Int)
(declare-const $i1_push0_2 Int)
(declare-const $i1_pop0_1 Int)
(declare-const $i1_pop0_2 Int)
(declare-const $i1_main0_1 Int)
(declare-const $i1_main0_2 Int)
(declare-const $i19_main0_1 Int)
(declare-const $i19_main0_2 Int)
(declare-const $i16_pop0_1 Int)
(declare-const $i16_pop0_2 Int)
(declare-const $i12_main0_1 Int)
(declare-const $i12_main0_2 Int)
(declare-const $i10_pop0_1 Int)
(declare-const $i10_pop0_2 Int)
(declare-const $i10_main0_1 Int)
(declare-const $i10_main0_2 Int)
(declare-const $i0_push0_1 Int)
(declare-const $i0_push0_2 Int)
(declare-const $i0_pop0_1 Int)
(declare-const $i0_pop0_2 Int)
(declare-const $M.9_1 Int)
(declare-const $M.9_2 Int)
(declare-const $M.6_1 Int)
(declare-const $M.6_2 Int)
(declare-const $M.0_1 Int)
(declare-const $M.0_2 Int)
(declare-locvar $p9_push0_1 IntLoc)
(declare-locvar $p9_push0_2 IntLoc)
(declare-locvar $p9_pop0_1 IntLoc)
(declare-locvar $p9_pop0_2 IntLoc)
(declare-locvar $p8_pop0_1 IntLoc)
(declare-locvar $p8_pop0_2 IntLoc)
(declare-locvar $p24_push0_1 IntLoc)
(declare-locvar $p24_push0_2 IntLoc)
(declare-locvar $p24_pop0_1 IntLoc)
(declare-locvar $p24_pop0_2 IntLoc)
(declare-locvar $p23_pop0_1 IntLoc)
(declare-locvar $p23_pop0_2 IntLoc)
(declare-locvar $p22_push0_1 IntLoc)
(declare-locvar $p22_push0_2 IntLoc)
(declare-locvar $p22_pop0_1 IntLoc)
(declare-locvar $p22_pop0_2 IntLoc)
(declare-locvar $p21_push0_1 IntLoc)
(declare-locvar $p21_push0_2 IntLoc)
(declare-locvar $p21_pop0_1 IntLoc)
(declare-locvar $p21_pop0_2 IntLoc)
(declare-locvar $p20_push0_1 IntLoc)
(declare-locvar $p20_push0_2 IntLoc)
(declare-locvar $p20_main0_1 IntLoc)
(declare-locvar $p20_main0_2 IntLoc)
(declare-locvar $p19_push0_1 IntLoc)
(declare-locvar $p19_push0_2 IntLoc)
(declare-locvar $p19_pop0_1 IntLoc)
(declare-locvar $p19_pop0_2 IntLoc)
(declare-locvar $p18_push0_1 IntLoc)
(declare-locvar $p18_push0_2 IntLoc)
(declare-locvar $p18_pop0_1 IntLoc)
(declare-locvar $p18_pop0_2 IntLoc)
(declare-locvar $p18_main0_1 IntLoc)
(declare-locvar $p18_main0_2 IntLoc)
(declare-locvar $p17_push0_1 IntLoc)
(declare-locvar $p17_push0_2 IntLoc)
(declare-locvar $p17_pop0_1 IntLoc)
(declare-locvar $p17_pop0_2 IntLoc)
(declare-locvar $p17_main0_1 IntLoc)
(declare-locvar $p17_main0_2 IntLoc)
(declare-locvar $p16_push0_1 IntLoc)
(declare-locvar $p16_push0_2 IntLoc)
(declare-locvar $p16_main0_1 IntLoc)
(declare-locvar $p16_main0_2 IntLoc)
(declare-locvar $p15_push0_1 IntLoc)
(declare-locvar $p15_push0_2 IntLoc)
(declare-locvar $p15_pop0_1 IntLoc)
(declare-locvar $p15_pop0_2 IntLoc)
(declare-locvar $p15_main0_1 IntLoc)
(declare-locvar $p15_main0_2 IntLoc)
(declare-locvar $p14_push0_1 IntLoc)
(declare-locvar $p14_push0_2 IntLoc)
(declare-locvar $p14_pop0_1 IntLoc)
(declare-locvar $p14_pop0_2 IntLoc)
(declare-locvar $p14_main0_1 IntLoc)
(declare-locvar $p14_main0_2 IntLoc)
(declare-locvar $p13_push0_1 IntLoc)
(declare-locvar $p13_push0_2 IntLoc)
(declare-locvar $p13_pop0_1 IntLoc)
(declare-locvar $p13_pop0_2 IntLoc)
(declare-locvar $p13_main0_1 IntLoc)
(declare-locvar $p13_main0_2 IntLoc)
(declare-locvar $p12_push0_1 IntLoc)
(declare-locvar $p12_push0_2 IntLoc)
(declare-locvar $p12_pop0_1 IntLoc)
(declare-locvar $p12_pop0_2 IntLoc)
(declare-locvar $p11_push0_1 IntLoc)
(declare-locvar $p11_push0_2 IntLoc)
(declare-locvar $p11_pop0_1 IntLoc)
(declare-locvar $p11_pop0_2 IntLoc)
(declare-locvar $p11_main0_1 IntLoc)
(declare-locvar $p11_main0_2 IntLoc)
(declare-locvar $p10_push0_1 IntLoc)
(declare-locvar $p10_push0_2 IntLoc)
(declare-locvar $p0_main0_1 IntLoc)
(declare-locvar $p0_main0_2 IntLoc)
(declare-locvar $M.8_1 IntLoc)
(declare-locvar $M.8_2 IntLoc)
(declare-locvar $M.7_1 IntLoc)
(declare-locvar $M.7_2 IntLoc)
(declare-locvar $M.5_1 IntLoc)
(declare-locvar $M.5_2 IntLoc)
(declare-locvar $M.4_1 IntLoc)
(declare-locvar $M.4_2 IntLoc)
(declare-locvar $M.10_1 IntLoc)
(declare-locvar $M.10_2 IntLoc)
(declare-locvar $M.1_1 IntLoc)
(declare-locvar $M.1_2 IntLoc)
(declare-const $i4_main01_2 Int)
(declare-const $i4_main0_2 Int)
(declare-const $i3_main01_2 Int)
(declare-const $i3_main0_2 Int)
(declare-const $i2_main02_2 Int)
(declare-const $i2_main0_2 Int)
(declare-const loc_1 Int)
(declare-const $i4_main0_1 Int)
(declare-const $i3_main0_1 Int)
(declare-const $i2_main0_1 Int)
(declare-hvar H_0 IntHeap)
(declare-hvar AH_0 IntHeap)
(declare-const $r_main0_0 Int)
(declare-const $i9_main0_0 Int)
(declare-const $i8_push0_0 Int)
(declare-const $i8_main0_0 Int)
(declare-const $i7_push0_0 Int)
(declare-const $i7_pop0_0 Int)
(declare-const $i7_main0_0 Int)
(declare-const $i6_push0_0 Int)
(declare-const $i6_pop0_0 Int)
(declare-const $i6_main0_0 Int)
(declare-const $i5_push0_0 Int)
(declare-const $i5_pop0_0 Int)
(declare-const $i5_main0_0 Int)
(declare-const $i4_push0_0 Int)
(declare-const $i4_pop0_0 Int)
(declare-const $i4_main0_0 Int)
(declare-const $i3_push0_0 Int)
(declare-const $i3_pop0_0 Int)
(declare-const $i3_main0_0 Int)
(declare-const $i2_push0_0 Int)
(declare-const $i2_pop0_0 Int)
(declare-const $i24_main0_0 Int)
(declare-const $i23_push0_0 Int)
(declare-const $i23_main0_0 Int)
(declare-const $i22_main0_0 Int)
(declare-const $i21_main0_0 Int)
(declare-const $i20_pop0_0 Int)
(declare-const $i1_push0_0 Int)
(declare-const $i1_pop0_0 Int)
(declare-const $i19_main0_0 Int)
(declare-const $i16_pop0_0 Int)
(declare-const $i12_main0_0 Int)
(declare-const $i10_pop0_0 Int)
(declare-const $i10_main0_0 Int)
(declare-const $i0_push0_0 Int)
(declare-const $i0_pop0_0 Int)
(declare-const $M.9_0 Int)
(declare-const $M.6_0 Int)
(declare-const $M.0_0 Int)
(declare-locvar $p9_push0_0 IntLoc)
(declare-locvar $p9_pop0_0 IntLoc)
(declare-locvar $p8_pop0_0 IntLoc)
(declare-locvar $p24_push0_0 IntLoc)
(declare-locvar $p24_pop0_0 IntLoc)
(declare-locvar $p23_pop0_0 IntLoc)
(declare-locvar $p22_push0_0 IntLoc)
(declare-locvar $p22_pop0_0 IntLoc)
(declare-locvar $p21_push0_0 IntLoc)
(declare-locvar $p21_pop0_0 IntLoc)
(declare-locvar $p20_push0_0 IntLoc)
(declare-locvar $p20_main0_0 IntLoc)
(declare-locvar $p19_push0_0 IntLoc)
(declare-locvar $p19_pop0_0 IntLoc)
(declare-locvar $p18_push0_0 IntLoc)
(declare-locvar $p18_pop0_0 IntLoc)
(declare-locvar $p18_main0_0 IntLoc)
(declare-locvar $p17_push0_0 IntLoc)
(declare-locvar $p17_pop0_0 IntLoc)
(declare-locvar $p17_main0_0 IntLoc)
(declare-locvar $p16_push0_0 IntLoc)
(declare-locvar $p16_main0_0 IntLoc)
(declare-locvar $p15_push0_0 IntLoc)
(declare-locvar $p15_pop0_0 IntLoc)
(declare-locvar $p15_main0_0 IntLoc)
(declare-locvar $p14_push0_0 IntLoc)
(declare-locvar $p14_pop0_0 IntLoc)
(declare-locvar $p14_main0_0 IntLoc)
(declare-locvar $p13_push0_0 IntLoc)
(declare-locvar $p13_pop0_0 IntLoc)
(declare-locvar $p13_main0_0 IntLoc)
(declare-locvar $p12_push0_0 IntLoc)
(declare-locvar $p12_pop0_0 IntLoc)
(declare-locvar $p11_push0_0 IntLoc)
(declare-locvar $p11_pop0_0 IntLoc)
(declare-locvar $p11_main0_0 IntLoc)
(declare-locvar $p10_push0_0 IntLoc)
(declare-locvar $M.8_0 IntLoc)
(declare-locvar $M.7_0 IntLoc)
(declare-locvar $M.5_0 IntLoc)
(declare-locvar $M.4_0 IntLoc)
(declare-locvar $M.10_0 IntLoc)
(declare-locvar $M.1_0 IntLoc)
(declare-locvar $p0_main01_1 IntLoc)
(declare-const $i2_main01_1 Int)
(declare-const $i1_main01_1 Int)
(declare-const loc_0 Int)
(assert
 (let (($x1895 (or (= H_2 (uplus h18 (pt l18 (Pt_R_0 l19)))) (= H_2 (uplus h18 (pt l18 (Pt_R_1 d12)))))))
 (let (($x1904 (and (and false $x1895) (= AH_2 (uplus ah3 (pt l20 (Pt_R_1 d13)))))))
 (let (($x1810 (= loc_2 4)))
 (let (($x1751 (= H_2 H_1)))
 (let (($x1752 (and (and true (= AH_2 AH_1)) $x1751)))
 (let (($x1744 (= $r_main0_2 $r_main0_1)))
 (let (($x1741 (= $i9_main0_2 $i9_main0_1)))
 (let (($x1738 (= $i8_push0_2 $i8_push0_1)))
 (let (($x1735 (= $i8_main0_2 $i8_main0_1)))
 (let (($x1732 (= $i7_push0_2 $i7_push0_1)))
 (let (($x1729 (= $i7_pop0_2 $i7_pop0_1)))
 (let (($x1726 (= $i7_main0_2 $i7_main0_1)))
 (let (($x1723 (= $i6_push0_2 $i6_push0_1)))
 (let (($x1720 (= $i6_pop0_2 $i6_pop0_1)))
 (let (($x1717 (= $i6_main0_2 $i6_main0_1)))
 (let (($x1714 (= $i5_push0_2 $i5_push0_1)))
 (let (($x1711 (= $i5_pop0_2 $i5_pop0_1)))
 (let (($x1708 (= $i5_main0_2 $i5_main0_1)))
 (let (($x1705 (= $i4_push0_2 $i4_push0_1)))
 (let (($x1702 (= $i4_pop0_2 $i4_pop0_1)))
 (let (($x1696 (= $i3_push0_2 $i3_push0_1)))
 (let (($x1693 (= $i3_pop0_2 $i3_pop0_1)))
 (let (($x1687 (= $i2_push0_2 $i2_push0_1)))
 (let (($x1684 (= $i2_pop0_2 $i2_pop0_1)))
 (let (($x1678 (= $i24_main0_2 $i24_main0_1)))
 (let (($x1675 (= $i23_push0_2 $i23_push0_1)))
 (let (($x1672 (= $i23_main0_2 $i23_main0_1)))
 (let (($x1669 (= $i22_main0_2 $i22_main0_1)))
 (let (($x1666 (= $i21_main0_2 $i21_main0_1)))
 (let (($x1663 (= $i20_pop0_2 $i20_pop0_1)))
 (let (($x1660 (= $i1_push0_2 $i1_push0_1)))
 (let (($x1657 (= $i1_pop0_2 $i1_pop0_1)))
 (let (($x1654 (= $i1_main0_2 $i1_main0_1)))
 (let (($x1651 (= $i19_main0_2 $i19_main0_1)))
 (let (($x1648 (= $i16_pop0_2 $i16_pop0_1)))
 (let (($x1645 (= $i12_main0_2 $i12_main0_1)))
 (let (($x1642 (= $i10_pop0_2 $i10_pop0_1)))
 (let (($x1639 (= $i10_main0_2 $i10_main0_1)))
 (let (($x1636 (= $i0_push0_2 $i0_push0_1)))
 (let (($x1633 (= $i0_pop0_2 $i0_pop0_1)))
 (let (($x1630 (= $M.9_2 $M.9_1)))
 (let (($x1631 (and (and (and true (= $M.0_2 $M.0_1)) (= $M.6_2 $M.6_1)) $x1630)))
 (let (($x1649 (and (and (and (and (and (and $x1631 $x1633) $x1636) $x1639) $x1642) $x1645) $x1648)))
 (let (($x1667 (and (and (and (and (and (and $x1649 $x1651) $x1654) $x1657) $x1660) $x1663) $x1666)))
 (let (($x1679 (and (and (and (and $x1667 $x1669) $x1672) $x1675) $x1678)))
 (let (($x1793 (and (and (and (and (and (and $x1679 $x1684) $x1687) $x1693) $x1696) $x1702) $x1705)))
 (let (($x1799 (and (and (and (and (and (and $x1793 $x1708) $x1711) $x1714) $x1717) $x1720) $x1723)))
 (let (($x1805 (and (and (and (and (and (and $x1799 $x1726) $x1729) $x1732) $x1735) $x1738) $x1741)))
 (let (($x1806 (and $x1805 $x1744)))
 (let (($x1620 (= $p9_push0_2 $p9_push0_1)))
 (let (($x1617 (= $p9_pop0_2 $p9_pop0_1)))
 (let (($x1614 (= $p8_pop0_2 $p8_pop0_1)))
 (let (($x1611 (= $p24_push0_2 $p24_push0_1)))
 (let (($x1608 (= $p24_pop0_2 $p24_pop0_1)))
 (let (($x1605 (= $p23_pop0_2 $p23_pop0_1)))
 (let (($x1602 (= $p22_push0_2 $p22_push0_1)))
 (let (($x1599 (= $p22_pop0_2 $p22_pop0_1)))
 (let (($x1596 (= $p21_push0_2 $p21_push0_1)))
 (let (($x1593 (= $p21_pop0_2 $p21_pop0_1)))
 (let (($x1590 (= $p20_push0_2 $p20_push0_1)))
 (let (($x1587 (= $p20_main0_2 $p20_main0_1)))
 (let (($x1584 (= $p19_push0_2 $p19_push0_1)))
 (let (($x1581 (= $p19_pop0_2 $p19_pop0_1)))
 (let (($x1578 (= $p18_push0_2 $p18_push0_1)))
 (let (($x1575 (= $p18_pop0_2 $p18_pop0_1)))
 (let (($x1572 (= $p18_main0_2 $p18_main0_1)))
 (let (($x1569 (= $p17_push0_2 $p17_push0_1)))
 (let (($x1566 (= $p17_pop0_2 $p17_pop0_1)))
 (let (($x1563 (= $p17_main0_2 $p17_main0_1)))
 (let (($x1560 (= $p16_push0_2 $p16_push0_1)))
 (let (($x1557 (= $p16_main0_2 $p16_main0_1)))
 (let (($x1554 (= $p15_push0_2 $p15_push0_1)))
 (let (($x1551 (= $p15_pop0_2 $p15_pop0_1)))
 (let (($x1548 (= $p15_main0_2 $p15_main0_1)))
 (let (($x1545 (= $p14_push0_2 $p14_push0_1)))
 (let (($x1542 (= $p14_pop0_2 $p14_pop0_1)))
 (let (($x1539 (= $p14_main0_2 $p14_main0_1)))
 (let (($x1536 (= $p13_push0_2 $p13_push0_1)))
 (let (($x1533 (= $p13_pop0_2 $p13_pop0_1)))
 (let (($x1530 (= $p13_main0_2 $p13_main0_1)))
 (let (($x1527 (= $p12_push0_2 $p12_push0_1)))
 (let (($x1524 (= $p12_pop0_2 $p12_pop0_1)))
 (let (($x1521 (= $p11_push0_2 $p11_push0_1)))
 (let (($x1518 (= $p11_pop0_2 $p11_pop0_1)))
 (let (($x1515 (= $p11_main0_2 $p11_main0_1)))
 (let (($x1512 (= $p10_push0_2 $p10_push0_1)))
 (let (($x1509 (= $p0_main0_2 $p0_main0_1)))
 (let (($x1506 (= $M.8_2 $M.8_1)))
 (let (($x1503 (= $M.7_2 $M.7_1)))
 (let (($x1500 (= $M.5_2 $M.5_1)))
 (let (($x1497 (= $M.4_2 $M.4_1)))
 (let (($x1498 (and (and (and true (= $M.1_2 $M.1_1)) (= $M.10_2 $M.10_1)) $x1497)))
 (let (($x1516 (and (and (and (and (and (and $x1498 $x1500) $x1503) $x1506) $x1509) $x1512) $x1515)))
 (let (($x1534 (and (and (and (and (and (and $x1516 $x1518) $x1521) $x1524) $x1527) $x1530) $x1533)))
 (let (($x1552 (and (and (and (and (and (and $x1534 $x1536) $x1539) $x1542) $x1545) $x1548) $x1551)))
 (let (($x1570 (and (and (and (and (and (and $x1552 $x1554) $x1557) $x1560) $x1563) $x1566) $x1569)))
 (let (($x1588 (and (and (and (and (and (and $x1570 $x1572) $x1575) $x1578) $x1581) $x1584) $x1587)))
 (let (($x1606 (and (and (and (and (and (and $x1588 $x1590) $x1593) $x1596) $x1599) $x1602) $x1605)))
 (let (($x1621 (and (and (and (and (and $x1606 $x1608) $x1611) $x1614) $x1617) $x1620)))
 (let (($x1783 (= $i4_main0_2 $i4_main01_2)))
 (let (($x1784 (and (and (= $i2_main0_2 $i2_main02_2) (= $i3_main0_2 $i3_main01_2)) $x1783)))
 (let (($x1785 (and $x1784 true)))
 (let (($x1766 (= $i2_main02_2 1)))
 (let (($x1774 (or (and (and (distinct 1 $i3_main01_2) true) (= $i4_main01_2 1)) (and (not (and (distinct 1 $i3_main01_2) true)) (= $i4_main01_2 0)))))
 (let (($x1776 (= $i3_main01_2 $M.0_1)))
 (let (($x1878 (and (and (and (and (and (and $x1776 $x1774) $x1766) $x1785) $x1621) $x1806) $x1752)))
 (let (($x1481 (= loc_1 2)))
 (let (($x1765 (and $x1481 (not (= $i1_main0_1 1)))))
 (let (($x1758 (= loc_2 3)))
 (let (($x1699 (= $i4_main0_2 $i4_main0_1)))
 (let (($x1690 (= $i3_main0_2 $i3_main0_1)))
 (let (($x1691 (and (and (and (and $x1679 (= $i2_main0_2 $i2_main0_1)) $x1684) $x1687) $x1690)))
 (let (($x1709 (and (and (and (and (and (and $x1691 $x1693) $x1696) $x1699) $x1702) $x1705) $x1708)))
 (let (($x1727 (and (and (and (and (and (and $x1709 $x1711) $x1714) $x1717) $x1720) $x1723) $x1726)))
 (let (($x1745 (and (and (and (and (and (and $x1727 $x1729) $x1732) $x1735) $x1738) $x1741) $x1744)))
 (let (($x1485 (= $i1_main0_1 1)))
 (let (($x1486 (and $x1481 $x1485)))
 (let (($x1872 (=> $x1486 (and (and (and (and (and true true) $x1621) $x1745) $x1752) $x1758))))
 (let (($x1474 (= H_1 H_0)))
 (let (($x1475 (and (and true (= AH_1 AH_0)) $x1474)))
 (let (($x1467 (= $r_main0_1 $r_main0_0)))
 (let (($x1463 (= $i9_main0_1 $i9_main0_0)))
 (let (($x1459 (= $i8_push0_1 $i8_push0_0)))
 (let (($x1455 (= $i8_main0_1 $i8_main0_0)))
 (let (($x1451 (= $i7_push0_1 $i7_push0_0)))
 (let (($x1447 (= $i7_pop0_1 $i7_pop0_0)))
 (let (($x1443 (= $i7_main0_1 $i7_main0_0)))
 (let (($x1439 (= $i6_push0_1 $i6_push0_0)))
 (let (($x1435 (= $i6_pop0_1 $i6_pop0_0)))
 (let (($x1431 (= $i6_main0_1 $i6_main0_0)))
 (let (($x1427 (= $i5_push0_1 $i5_push0_0)))
 (let (($x1423 (= $i5_pop0_1 $i5_pop0_0)))
 (let (($x1419 (= $i5_main0_1 $i5_main0_0)))
 (let (($x1415 (= $i4_push0_1 $i4_push0_0)))
 (let (($x1411 (= $i4_pop0_1 $i4_pop0_0)))
 (let (($x1407 (= $i4_main0_1 $i4_main0_0)))
 (let (($x1403 (= $i3_push0_1 $i3_push0_0)))
 (let (($x1399 (= $i3_pop0_1 $i3_pop0_0)))
 (let (($x1395 (= $i3_main0_1 $i3_main0_0)))
 (let (($x1391 (= $i2_push0_1 $i2_push0_0)))
 (let (($x1387 (= $i2_pop0_1 $i2_pop0_0)))
 (let (($x1383 (= $i24_main0_1 $i24_main0_0)))
 (let (($x1379 (= $i23_push0_1 $i23_push0_0)))
 (let (($x1375 (= $i23_main0_1 $i23_main0_0)))
 (let (($x1371 (= $i22_main0_1 $i22_main0_0)))
 (let (($x1367 (= $i21_main0_1 $i21_main0_0)))
 (let (($x1363 (= $i20_pop0_1 $i20_pop0_0)))
 (let (($x1359 (= $i1_push0_1 $i1_push0_0)))
 (let (($x1355 (= $i1_pop0_1 $i1_pop0_0)))
 (let (($x1351 (= $i19_main0_1 $i19_main0_0)))
 (let (($x1347 (= $i16_pop0_1 $i16_pop0_0)))
 (let (($x1343 (= $i12_main0_1 $i12_main0_0)))
 (let (($x1339 (= $i10_pop0_1 $i10_pop0_0)))
 (let (($x1335 (= $i10_main0_1 $i10_main0_0)))
 (let (($x1331 (= $i0_push0_1 $i0_push0_0)))
 (let (($x1327 (= $i0_pop0_1 $i0_pop0_0)))
 (let (($x1323 (= $M.9_1 $M.9_0)))
 (let (($x1324 (and (and (and true (= $M.0_1 $M.0_0)) (= $M.6_1 $M.6_0)) $x1323)))
 (let (($x1348 (and (and (and (and (and (and $x1324 $x1327) $x1331) $x1335) $x1339) $x1343) $x1347)))
 (let (($x1372 (and (and (and (and (and (and $x1348 $x1351) $x1355) $x1359) $x1363) $x1367) $x1371)))
 (let (($x1396 (and (and (and (and (and (and $x1372 $x1375) $x1379) $x1383) $x1387) $x1391) $x1395)))
 (let (($x1420 (and (and (and (and (and (and $x1396 $x1399) $x1403) $x1407) $x1411) $x1415) $x1419)))
 (let (($x1444 (and (and (and (and (and (and $x1420 $x1423) $x1427) $x1431) $x1435) $x1439) $x1443)))
 (let (($x1468 (and (and (and (and (and (and $x1444 $x1447) $x1451) $x1455) $x1459) $x1463) $x1467)))
 (let (($x1310 (= $p9_push0_1 $p9_push0_0)))
 (let (($x1306 (= $p9_pop0_1 $p9_pop0_0)))
 (let (($x1302 (= $p8_pop0_1 $p8_pop0_0)))
 (let (($x1298 (= $p24_push0_1 $p24_push0_0)))
 (let (($x1294 (= $p24_pop0_1 $p24_pop0_0)))
 (let (($x1290 (= $p23_pop0_1 $p23_pop0_0)))
 (let (($x1286 (= $p22_push0_1 $p22_push0_0)))
 (let (($x1282 (= $p22_pop0_1 $p22_pop0_0)))
 (let (($x1278 (= $p21_push0_1 $p21_push0_0)))
 (let (($x1274 (= $p21_pop0_1 $p21_pop0_0)))
 (let (($x1270 (= $p20_push0_1 $p20_push0_0)))
 (let (($x1266 (= $p20_main0_1 $p20_main0_0)))
 (let (($x1262 (= $p19_push0_1 $p19_push0_0)))
 (let (($x1258 (= $p19_pop0_1 $p19_pop0_0)))
 (let (($x1254 (= $p18_push0_1 $p18_push0_0)))
 (let (($x1250 (= $p18_pop0_1 $p18_pop0_0)))
 (let (($x1246 (= $p18_main0_1 $p18_main0_0)))
 (let (($x1242 (= $p17_push0_1 $p17_push0_0)))
 (let (($x1238 (= $p17_pop0_1 $p17_pop0_0)))
 (let (($x1234 (= $p17_main0_1 $p17_main0_0)))
 (let (($x1230 (= $p16_push0_1 $p16_push0_0)))
 (let (($x1226 (= $p16_main0_1 $p16_main0_0)))
 (let (($x1222 (= $p15_push0_1 $p15_push0_0)))
 (let (($x1218 (= $p15_pop0_1 $p15_pop0_0)))
 (let (($x1214 (= $p15_main0_1 $p15_main0_0)))
 (let (($x1210 (= $p14_push0_1 $p14_push0_0)))
 (let (($x1206 (= $p14_pop0_1 $p14_pop0_0)))
 (let (($x1202 (= $p14_main0_1 $p14_main0_0)))
 (let (($x1198 (= $p13_push0_1 $p13_push0_0)))
 (let (($x1194 (= $p13_pop0_1 $p13_pop0_0)))
 (let (($x1190 (= $p13_main0_1 $p13_main0_0)))
 (let (($x1186 (= $p12_push0_1 $p12_push0_0)))
 (let (($x1182 (= $p12_pop0_1 $p12_pop0_0)))
 (let (($x1178 (= $p11_push0_1 $p11_push0_0)))
 (let (($x1174 (= $p11_pop0_1 $p11_pop0_0)))
 (let (($x1170 (= $p11_main0_1 $p11_main0_0)))
 (let (($x1166 (= $p10_push0_1 $p10_push0_0)))
 (let (($x1162 (= $M.8_1 $M.8_0)))
 (let (($x1158 (= $M.7_1 $M.7_0)))
 (let (($x1154 (= $M.5_1 $M.5_0)))
 (let (($x1150 (= $M.4_1 $M.4_0)))
 (let (($x1151 (and (and (and true (= $M.1_1 $M.1_0)) (= $M.10_1 $M.10_0)) $x1150)))
 (let (($x1175 (and (and (and (and (and (and $x1151 $x1154) $x1158) $x1162) $x1166) $x1170) $x1174)))
 (let (($x1199 (and (and (and (and (and (and $x1175 $x1178) $x1182) $x1186) $x1190) $x1194) $x1198)))
 (let (($x1223 (and (and (and (and (and (and $x1199 $x1202) $x1206) $x1210) $x1214) $x1218) $x1222)))
 (let (($x1247 (and (and (and (and (and (and $x1223 $x1226) $x1230) $x1234) $x1238) $x1242) $x1246)))
 (let (($x1271 (and (and (and (and (and (and $x1247 $x1250) $x1254) $x1258) $x1262) $x1266) $x1270)))
 (let (($x1295 (and (and (and (and (and (and $x1271 $x1274) $x1278) $x1282) $x1286) $x1290) $x1294)))
 (let (($x1311 (and (and (and (and $x1295 $x1298) $x1302) $x1306) $x1310)))
 (let (($x1137 (= $p0_main0_1 $p0_main01_1)))
 (let (($x1138 (and (and (= $i1_main0_1 $i1_main01_1) (= $i2_main0_1 $i2_main01_1)) $x1137)))
 (let (($x1139 (and $x1138 true)))
 (let (($x1117 (= $i2_main01_1 1)))
 (let (($x1125 (or (and (and (distinct $p0_main01_1 nil) true) (= $i1_main01_1 1)) (and (not (and (distinct $p0_main01_1 nil) true)) (= $i1_main01_1 0)))))
 (let (($x1127 (= $p0_main01_1 $M.4_0)))
 (let (($x1864 (and (and (and (and (and (and $x1127 $x1125) $x1117) $x1139) $x1311) $x1468) $x1475)))
 (let (($x1107 (= loc_0 1)))
 (let (($x1109 (and (and (= H_0 emp) (= AH_0 emp)) $x1107)))
 (let (($x1882 (and (and $x1109 (=> $x1107 (and $x1864 $x1481))) (and $x1872 (=> $x1765 (and $x1878 $x1810))))))
 (and $x1882 $x1904)))))))))))))))))))))))))))))))))))))))))))))))))))))))))))))))))))))))))))))))))))))))))))))))))))))))))))))))))))))))))))))))))))))))))))))))))))))))))))))))))))))))))))))))))))))))))))))))))))))))))))))))))))))))))))))))))
(check-sat)
